Version identifier: 12.10.0.0 | 2019-11-26 | 843d4de
CPXPARAM_MIP_Interval                            10
CPXPARAM_MIP_Tolerances_AbsMIPGap                0.98999999999999999
Tried aggregator 2 times.
MIP Presolve eliminated 3582 rows and 3606 columns.
MIP Presolve modified 1 coefficients.
Aggregator did 42 substitutions.
Reduced MIP has 941 rows, 720 columns, and 2874 nonzeros.
Reduced MIP has 720 binaries, 0 generals, 0 SOSs, and 0 indicators.
Presolve time = 0.02 sec. (6.58 ticks)
Found incumbent of value 4.000000 after 0.04 sec. (10.58 ticks)
Probing fixed 18 vars, tightened 0 bounds.
Probing changed sense of 40 constraints.
Probing time = 0.00 sec. (2.96 ticks)
Tried aggregator 2 times.
MIP Presolve eliminated 184 rows and 137 columns.
Aggregator did 25 substitutions.
Reduced MIP has 732 rows, 558 columns, and 2217 nonzeros.
Reduced MIP has 558 binaries, 0 generals, 0 SOSs, and 0 indicators.
Presolve time = 0.00 sec. (2.94 ticks)
Probing time = 0.00 sec. (1.09 ticks)
Tried aggregator 2 times.
Detecting symmetries...
MIP Presolve eliminated 69 rows and 56 columns.
Aggregator did 4 substitutions.
Reduced MIP has 659 rows, 498 columns, and 1989 nonzeros.
Reduced MIP has 498 binaries, 0 generals, 0 SOSs, and 0 indicators.
Presolve time = 0.00 sec. (2.92 ticks)
Probing time = 0.00 sec. (0.92 ticks)
Clique table members: 495.
MIP emphasis: balance optimality and feasibility.
MIP search method: dynamic search.
Parallel mode: deterministic, using up to 4 threads.
Root relaxation solution time = 0.00 sec. (1.46 ticks)

        Nodes                                         Cuts/
   Node  Left     Objective  IInf  Best Integer    Best Bound    ItCnt     Gap

*     0+    0                            4.0000       16.0000           300.00%
*     0+    0                            6.0000       16.0000           166.67%
      0     0       10.8333    37        6.0000       10.8333       74   80.56%
*     0+    0                            9.0000       10.8333            20.37%
      0     0       10.5000    37        9.0000      Cuts: 35      161   16.67%
      0     0       10.0000    37        9.0000      Cuts: 48      254   11.11%
      0     0       10.0000    37        9.0000      Cuts: 83      325   11.11%
      0     0       10.0000    37        9.0000       Cuts: 4      345   11.11%
      0     0       10.0000    37        9.0000      Cuts: 57      394   11.11%
Detecting symmetries...
      0     0        cutoff              9.0000        9.0000      394    0.00%
Elapsed time = 0.10 sec. (61.91 ticks, tree = 0.01 MB, solutions = 3)
the number of Nodes = 0
